\ This file has been generated by DOcplex
\ ENCODING=ISO-8859-1
\Problem name: IRP_ManyObjective

Minimize
 obj: 0.475000000000 f_0_1_1_1 + 0.100000000000 f_0_1_1_2
      + 0.475000000000 f_0_1_2_1 + 0.100000000000 f_0_1_2_2
      + 0.950000000000 f_0_2_1_1 + 0.200000000000 f_0_2_1_2
      + 0.950000000000 f_0_2_2_1 + 0.200000000000 f_0_2_2_2
      + 1.425000000000 f_0_3_1_1 + 0.300000000000 f_0_3_1_2
      + 1.425000000000 f_0_3_2_1 + 0.300000000000 f_0_3_2_2
      + 0.475000000000 f_1_0_1_1 + 0.100000000000 f_1_0_1_2
      + 0.475000000000 f_1_0_2_1 + 0.100000000000 f_1_0_2_2
      + 0.475000000000 f_1_2_1_1 + 0.100000000000 f_1_2_1_2
      + 0.475000000000 f_1_2_2_1 + 0.100000000000 f_1_2_2_2
      + 0.950000000000 f_1_3_1_1 + 0.200000000000 f_1_3_1_2
      + 0.950000000000 f_1_3_2_1 + 0.200000000000 f_1_3_2_2
      + 0.950000000000 f_2_0_1_1 + 0.200000000000 f_2_0_1_2
      + 0.950000000000 f_2_0_2_1 + 0.200000000000 f_2_0_2_2
      + 0.475000000000 f_2_1_1_1 + 0.100000000000 f_2_1_1_2
      + 0.475000000000 f_2_1_2_1 + 0.100000000000 f_2_1_2_2
      + 0.475000000000 f_2_3_1_1 + 0.100000000000 f_2_3_1_2
      + 0.475000000000 f_2_3_2_1 + 0.100000000000 f_2_3_2_2
      + 1.425000000000 f_3_0_1_1 + 0.300000000000 f_3_0_1_2
      + 1.425000000000 f_3_0_2_1 + 0.300000000000 f_3_0_2_2
      + 0.950000000000 f_3_1_1_1 + 0.200000000000 f_3_1_1_2
      + 0.950000000000 f_3_1_2_1 + 0.200000000000 f_3_1_2_2
      + 0.475000000000 f_3_2_1_1 + 0.100000000000 f_3_2_1_2
      + 0.475000000000 f_3_2_2_1 + 0.100000000000 f_3_2_2_2
      + 0.305000000000 I_O_1 + 0.305000000000 I_O_2 + 2 w1_1_1 + 2 w1_1_2
      + 2 w1_2_1 + 2 w1_2_2 + 2 w1_3_1 + 2 w1_3_2 + 5 w2_1_1 + 5 w2_1_2
      + 5 w2_2_1 + 5 w2_2_2 + 5 w2_3_1 + 5 w2_3_2
Subject To
 c1_k1_t1: x_0_1_1_1 + x_0_2_1_1 + x_0_3_1_1 <= 1
 c2_k1_t1: x_1_0_1_1 + x_2_0_1_1 + x_3_0_1_1 - x_0_1_1_1 - x_0_2_1_1 - x_0_3_1_1
            = 0
 c3_j1_k1_t1: x_0_1_1_1 + x_2_1_1_1 + x_3_1_1_1 - x_1_0_1_1 - x_1_2_1_1
              - x_1_3_1_1 = 0
 c3_j2_k1_t1: x_0_2_1_1 + x_1_2_1_1 + x_3_2_1_1 - x_2_0_1_1 - x_2_1_1_1
              - x_2_3_1_1 = 0
 c3_j3_k1_t1: x_0_3_1_1 + x_1_3_1_1 + x_2_3_1_1 - x_3_0_1_1 - x_3_1_1_1
              - x_3_2_1_1 = 0
 c1_k1_t2: x_0_1_2_1 + x_0_2_2_1 + x_0_3_2_1 <= 1
 c2_k1_t2: x_1_0_2_1 + x_2_0_2_1 + x_3_0_2_1 - x_0_1_2_1 - x_0_2_2_1 - x_0_3_2_1
            = 0
 c3_j1_k1_t2: x_0_1_2_1 + x_2_1_2_1 + x_3_1_2_1 - x_1_0_2_1 - x_1_2_2_1
              - x_1_3_2_1 = 0
 c3_j2_k1_t2: x_0_2_2_1 + x_1_2_2_1 + x_3_2_2_1 - x_2_0_2_1 - x_2_1_2_1
              - x_2_3_2_1 = 0
 c3_j3_k1_t2: x_0_3_2_1 + x_1_3_2_1 + x_2_3_2_1 - x_3_0_2_1 - x_3_1_2_1
              - x_3_2_2_1 = 0
 c1_k2_t1: x_0_1_1_2 + x_0_2_1_2 + x_0_3_1_2 <= 1
 c2_k2_t1: x_1_0_1_2 + x_2_0_1_2 + x_3_0_1_2 - x_0_1_1_2 - x_0_2_1_2 - x_0_3_1_2
            = 0
 c3_j1_k2_t1: x_0_1_1_2 + x_2_1_1_2 + x_3_1_1_2 - x_1_0_1_2 - x_1_2_1_2
              - x_1_3_1_2 = 0
 c3_j2_k2_t1: x_0_2_1_2 + x_1_2_1_2 + x_3_2_1_2 - x_2_0_1_2 - x_2_1_1_2
              - x_2_3_1_2 = 0
 c3_j3_k2_t1: x_0_3_1_2 + x_1_3_1_2 + x_2_3_1_2 - x_3_0_1_2 - x_3_1_1_2
              - x_3_2_1_2 = 0
 c1_k2_t2: x_0_1_2_2 + x_0_2_2_2 + x_0_3_2_2 <= 1
 c2_k2_t2: x_1_0_2_2 + x_2_0_2_2 + x_3_0_2_2 - x_0_1_2_2 - x_0_2_2_2 - x_0_3_2_2
            = 0
 c3_j1_k2_t2: x_0_1_2_2 + x_2_1_2_2 + x_3_1_2_2 - x_1_0_2_2 - x_1_2_2_2
              - x_1_3_2_2 = 0
 c3_j2_k2_t2: x_0_2_2_2 + x_1_2_2_2 + x_3_2_2_2 - x_2_0_2_2 - x_2_1_2_2
              - x_2_3_2_2 = 0
 c3_j3_k2_t2: x_0_3_2_2 + x_1_3_2_2 + x_2_3_2_2 - x_3_0_2_2 - x_3_1_2_2
              - x_3_2_2_2 = 0
 c4_01_k1_t1: f_0_1_1_1 - 100 x_0_1_1_1 <= 0
 c4_01_k1_t2: f_0_1_2_1 - 100 x_0_1_2_1 <= 0
 c4_02_k1_t1: f_0_2_1_1 - 100 x_0_2_1_1 <= 0
 c4_02_k1_t2: f_0_2_2_1 - 100 x_0_2_2_1 <= 0
 c4_03_k1_t1: f_0_3_1_1 - 100 x_0_3_1_1 <= 0
 c4_03_k1_t2: f_0_3_2_1 - 100 x_0_3_2_1 <= 0
 c4_10_k1_t1: f_1_0_1_1 - 100 x_1_0_1_1 <= 0
 c4_10_k1_t2: f_1_0_2_1 - 100 x_1_0_2_1 <= 0
 c4_12_k1_t1: f_1_2_1_1 - 100 x_1_2_1_1 <= 0
 c4_12_k1_t2: f_1_2_2_1 - 100 x_1_2_2_1 <= 0
 c4_13_k1_t1: f_1_3_1_1 - 100 x_1_3_1_1 <= 0
 c4_13_k1_t2: f_1_3_2_1 - 100 x_1_3_2_1 <= 0
 c4_20_k1_t1: f_2_0_1_1 - 100 x_2_0_1_1 <= 0
 c4_20_k1_t2: f_2_0_2_1 - 100 x_2_0_2_1 <= 0
 c4_21_k1_t1: f_2_1_1_1 - 100 x_2_1_1_1 <= 0
 c4_21_k1_t2: f_2_1_2_1 - 100 x_2_1_2_1 <= 0
 c4_23_k1_t1: f_2_3_1_1 - 100 x_2_3_1_1 <= 0
 c4_23_k1_t2: f_2_3_2_1 - 100 x_2_3_2_1 <= 0
 c4_30_k1_t1: f_3_0_1_1 - 100 x_3_0_1_1 <= 0
 c4_30_k1_t2: f_3_0_2_1 - 100 x_3_0_2_1 <= 0
 c4_31_k1_t1: f_3_1_1_1 - 100 x_3_1_1_1 <= 0
 c4_31_k1_t2: f_3_1_2_1 - 100 x_3_1_2_1 <= 0
 c4_32_k1_t1: f_3_2_1_1 - 100 x_3_2_1_1 <= 0
 c4_32_k1_t2: f_3_2_2_1 - 100 x_3_2_2_1 <= 0
 c4_01_k2_t1: f_0_1_1_2 - 80 x_0_1_1_2 <= 0
 c4_01_k2_t2: f_0_1_2_2 - 80 x_0_1_2_2 <= 0
 c4_02_k2_t1: f_0_2_1_2 - 80 x_0_2_1_2 <= 0
 c4_02_k2_t2: f_0_2_2_2 - 80 x_0_2_2_2 <= 0
 c4_03_k2_t1: f_0_3_1_2 - 80 x_0_3_1_2 <= 0
 c4_03_k2_t2: f_0_3_2_2 - 80 x_0_3_2_2 <= 0
 c4_10_k2_t1: f_1_0_1_2 - 80 x_1_0_1_2 <= 0
 c4_10_k2_t2: f_1_0_2_2 - 80 x_1_0_2_2 <= 0
 c4_12_k2_t1: f_1_2_1_2 - 80 x_1_2_1_2 <= 0
 c4_12_k2_t2: f_1_2_2_2 - 80 x_1_2_2_2 <= 0
 c4_13_k2_t1: f_1_3_1_2 - 80 x_1_3_1_2 <= 0
 c4_13_k2_t2: f_1_3_2_2 - 80 x_1_3_2_2 <= 0
 c4_20_k2_t1: f_2_0_1_2 - 80 x_2_0_1_2 <= 0
 c4_20_k2_t2: f_2_0_2_2 - 80 x_2_0_2_2 <= 0
 c4_21_k2_t1: f_2_1_1_2 - 80 x_2_1_1_2 <= 0
 c4_21_k2_t2: f_2_1_2_2 - 80 x_2_1_2_2 <= 0
 c4_23_k2_t1: f_2_3_1_2 - 80 x_2_3_1_2 <= 0
 c4_23_k2_t2: f_2_3_2_2 - 80 x_2_3_2_2 <= 0
 c4_30_k2_t1: f_3_0_1_2 - 80 x_3_0_1_2 <= 0
 c4_30_k2_t2: f_3_0_2_2 - 80 x_3_0_2_2 <= 0
 c4_31_k2_t1: f_3_1_1_2 - 80 x_3_1_1_2 <= 0
 c4_31_k2_t2: f_3_1_2_2 - 80 x_3_1_2_2 <= 0
 c4_32_k2_t1: f_3_2_1_2 - 80 x_3_2_1_2 <= 0
 c4_32_k2_t2: f_3_2_2_2 - 80 x_3_2_2_2 <= 0
 c5_min_t1: I_O_1 >= 10
 c5_max_t1: I_O_1 <= 300
 c5_min_t2: I_O_2 >= 10
 c5_max_t2: I_O_2 <= 300
 c6_t1: I_O_1 + f_0_1_1_1 + f_0_1_1_2 + f_0_2_1_1 + f_0_2_1_2 + f_0_3_1_1
        + f_0_3_1_2 = 265
 c6_t2: I_O_2 + f_0_1_2_1 + f_0_1_2_2 + f_0_2_2_1 + f_0_2_2_2 + f_0_3_2_1
        + f_0_3_2_2 - I_O_1 = 80
 c7_l1_td1: qprime_1_1_1 = 20
 c7_l1_td2: qprime_1_1_2 + qprime_1_2_2 = 25
 c7_l2_td1: qprime_2_1_1 = 30
 c7_l2_td2: qprime_2_1_2 + qprime_2_2_2 = 35
 c7_l3_td1: qprime_3_1_1 = 15
 c7_l3_td2: qprime_3_1_2 + qprime_3_2_2 = 20
 c8_l1_t1: f_0_1_1_1 + f_0_1_1_2 - f_1_0_1_1 - f_1_0_1_2 - f_1_2_1_1 - f_1_2_1_2
           - f_1_3_1_1 - f_1_3_1_2 + f_2_1_1_1 + f_2_1_1_2 + f_3_1_1_1
           + f_3_1_1_2 - qprime_1_1_1 - qprime_1_1_2 = 0
 c8_l1_t2: f_0_1_2_1 + f_0_1_2_2 - f_1_0_2_1 - f_1_0_2_2 - f_1_2_2_1 - f_1_2_2_2
           - f_1_3_2_1 - f_1_3_2_2 + f_2_1_2_1 + f_2_1_2_2 + f_3_1_2_1
           + f_3_1_2_2 - qprime_1_2_2 = 0
 c8_l2_t1: f_0_2_1_1 + f_0_2_1_2 + f_1_2_1_1 + f_1_2_1_2 - f_2_0_1_1 - f_2_0_1_2
           - f_2_1_1_1 - f_2_1_1_2 - f_2_3_1_1 - f_2_3_1_2 + f_3_2_1_1
           + f_3_2_1_2 - qprime_2_1_1 - qprime_2_1_2 = 0
 c8_l2_t2: f_0_2_2_1 + f_0_2_2_2 + f_1_2_2_1 + f_1_2_2_2 - f_2_0_2_1 - f_2_0_2_2
           - f_2_1_2_1 - f_2_1_2_2 - f_2_3_2_1 - f_2_3_2_2 + f_3_2_2_1
           + f_3_2_2_2 - qprime_2_2_2 = 0
 c8_l3_t1: f_0_3_1_1 + f_0_3_1_2 + f_1_3_1_1 + f_1_3_1_2 + f_2_3_1_1 + f_2_3_1_2
           - f_3_0_1_1 - f_3_0_1_2 - f_3_1_1_1 - f_3_1_1_2 - f_3_2_1_1
           - f_3_2_1_2 - qprime_3_1_1 - qprime_3_1_2 = 0
 c8_l3_t2: f_0_3_2_1 + f_0_3_2_2 + f_1_3_2_1 + f_1_3_2_2 + f_2_3_2_1 + f_2_3_2_2
           - f_3_0_2_1 - f_3_0_2_2 - f_3_1_2_1 - f_3_1_2_2 - f_3_2_2_1
           - f_3_2_2_2 - qprime_3_2_2 = 0
 c9_t1: tau_0_1 = 0
 c9_t2: tau_0_2 = 0
 c10_01_k1_t1: tau_1_1 - 999 x_0_1_1_1 - tau_0_1 >= -998.375000000000
 c10_01_k1_t2: tau_1_2 - 999 x_0_1_2_1 - tau_0_2 >= -998.375000000000
 c10_02_k1_t1: tau_2_1 - 999 x_0_2_1_1 - tau_0_1 >= -998.250000000000
 c10_02_k1_t2: tau_2_2 - 999 x_0_2_2_1 - tau_0_2 >= -998.250000000000
 c10_03_k1_t1: tau_3_1 - 999 x_0_3_1_1 - tau_0_1 >= -998.125000000000
 c10_03_k1_t2: tau_3_2 - 999 x_0_3_2_1 - tau_0_2 >= -998.125000000000
 c10_10_k1_t1: tau_0_1 - 999 x_1_0_1_1 - tau_1_1 >= -998.375000000000
 c10_10_k1_t2: tau_0_2 - 999 x_1_0_2_1 - tau_1_2 >= -998.375000000000
 c10_12_k1_t1: tau_2_1 - 999 x_1_2_1_1 - tau_1_1 >= -998.375000000000
 c10_12_k1_t2: tau_2_2 - 999 x_1_2_2_1 - tau_1_2 >= -998.375000000000
 c10_13_k1_t1: tau_3_1 - 999 x_1_3_1_1 - tau_1_1 >= -998.250000000000
 c10_13_k1_t2: tau_3_2 - 999 x_1_3_2_1 - tau_1_2 >= -998.250000000000
 c10_20_k1_t1: tau_0_1 - 999 x_2_0_1_1 - tau_2_1 >= -998.250000000000
 c10_20_k1_t2: tau_0_2 - 999 x_2_0_2_1 - tau_2_2 >= -998.250000000000
 c10_21_k1_t1: tau_1_1 - 999 x_2_1_1_1 - tau_2_1 >= -998.375000000000
 c10_21_k1_t2: tau_1_2 - 999 x_2_1_2_1 - tau_2_2 >= -998.375000000000
 c10_23_k1_t1: tau_3_1 - 999 x_2_3_1_1 - tau_2_1 >= -998.375000000000
 c10_23_k1_t2: tau_3_2 - 999 x_2_3_2_1 - tau_2_2 >= -998.375000000000
 c10_30_k1_t1: tau_0_1 - 999 x_3_0_1_1 - tau_3_1 >= -998.125000000000
 c10_30_k1_t2: tau_0_2 - 999 x_3_0_2_1 - tau_3_2 >= -998.125000000000
 c10_31_k1_t1: tau_1_1 - 999 x_3_1_1_1 - tau_3_1 >= -998.250000000000
 c10_31_k1_t2: tau_1_2 - 999 x_3_1_2_1 - tau_3_2 >= -998.250000000000
 c10_32_k1_t1: tau_2_1 - 999 x_3_2_1_1 - tau_3_1 >= -998.375000000000
 c10_32_k1_t2: tau_2_2 - 999 x_3_2_2_1 - tau_3_2 >= -998.375000000000
 c10_01_k2_t1: tau_1_1 - 999 x_0_1_1_2 - tau_0_1 >= -998.333333333333
 c10_01_k2_t2: tau_1_2 - 999 x_0_1_2_2 - tau_0_2 >= -998.333333333333
 c10_02_k2_t1: tau_2_1 - 999 x_0_2_1_2 - tau_0_1 >= -998.166666666667
 c10_02_k2_t2: tau_2_2 - 999 x_0_2_2_2 - tau_0_2 >= -998.166666666667
 c10_03_k2_t1: tau_3_1 - 999 x_0_3_1_2 - tau_0_1 >= -998
 c10_03_k2_t2: tau_3_2 - 999 x_0_3_2_2 - tau_0_2 >= -998
 c10_10_k2_t1: tau_0_1 - 999 x_1_0_1_2 - tau_1_1 >= -998.333333333333
 c10_10_k2_t2: tau_0_2 - 999 x_1_0_2_2 - tau_1_2 >= -998.333333333333
 c10_12_k2_t1: tau_2_1 - 999 x_1_2_1_2 - tau_1_1 >= -998.333333333333
 c10_12_k2_t2: tau_2_2 - 999 x_1_2_2_2 - tau_1_2 >= -998.333333333333
 c10_13_k2_t1: tau_3_1 - 999 x_1_3_1_2 - tau_1_1 >= -998.166666666667
 c10_13_k2_t2: tau_3_2 - 999 x_1_3_2_2 - tau_1_2 >= -998.166666666667
 c10_20_k2_t1: tau_0_1 - 999 x_2_0_1_2 - tau_2_1 >= -998.166666666667
 c10_20_k2_t2: tau_0_2 - 999 x_2_0_2_2 - tau_2_2 >= -998.166666666667
 c10_21_k2_t1: tau_1_1 - 999 x_2_1_1_2 - tau_2_1 >= -998.333333333333
 c10_21_k2_t2: tau_1_2 - 999 x_2_1_2_2 - tau_2_2 >= -998.333333333333
 c10_23_k2_t1: tau_3_1 - 999 x_2_3_1_2 - tau_2_1 >= -998.333333333333
 c10_23_k2_t2: tau_3_2 - 999 x_2_3_2_2 - tau_2_2 >= -998.333333333333
 c10_30_k2_t1: tau_0_1 - 999 x_3_0_1_2 - tau_3_1 >= -998
 c10_30_k2_t2: tau_0_2 - 999 x_3_0_2_2 - tau_3_2 >= -998
 c10_31_k2_t1: tau_1_1 - 999 x_3_1_1_2 - tau_3_1 >= -998.166666666667
 c10_31_k2_t2: tau_1_2 - 999 x_3_1_2_2 - tau_3_2 >= -998.166666666667
 c10_32_k2_t1: tau_2_1 - 999 x_3_2_1_2 - tau_3_1 >= -998.333333333333
 c10_32_k2_t2: tau_2_2 - 999 x_3_2_2_2 - tau_3_2 >= -998.333333333333
 c11_early_l1_t1: w1_1_1 + tau_1_1 >= 1
 c11_late_l1_t1: w2_1_1 - tau_1_1 >= -3
 c11_early_l1_t2: w1_1_2 + tau_1_2 >= 1
 c11_late_l1_t2: w2_1_2 - tau_1_2 >= -3
 c11_early_l2_t1: w1_2_1 + tau_2_1 >= 1
 c11_late_l2_t1: w2_2_1 - tau_2_1 >= -3
 c11_early_l2_t2: w1_2_2 + tau_2_2 >= 1
 c11_late_l2_t2: w2_2_2 - tau_2_2 >= -3
 c11_early_l3_t1: w1_3_1 + tau_3_1 >= 1
 c11_late_l3_t1: w2_3_1 - tau_3_1 >= -3
 c11_early_l3_t2: w1_3_2 + tau_3_2 >= 1
 c11_late_l3_t2: w2_3_2 - tau_3_2 >= -3
 c12_min_t1: tau_0_1 >= 0
 c12_max_t1: tau_0_1 <= 9999
 c12_min_t2: tau_0_2 >= 0
 c12_max_t2: tau_0_2 <= 9999
 c13_l1_t1: x_0_1_1_2 + x_2_1_1_2 + x_3_1_1_2 = 0
 c13_l2_t1: x_0_2_1_2 + x_1_2_1_2 + x_3_2_1_2 = 0
 c13_l2_t2: x_0_2_2_2 + x_1_2_2_2 + x_3_2_2_2 = 0
 c13_l3_t2: x_0_3_2_2 + x_1_3_2_2 + x_2_3_2_2 = 0
 c14_logistics_budget: 0.475000000000 f_0_1_1_1 + 0.100000000000 f_0_1_1_2
                       + 0.475000000000 f_0_1_2_1 + 0.100000000000 f_0_1_2_2
                       + 0.950000000000 f_0_2_1_1 + 0.200000000000 f_0_2_1_2
                       + 0.950000000000 f_0_2_2_1 + 0.200000000000 f_0_2_2_2
                       + 1.425000000000 f_0_3_1_1 + 0.300000000000 f_0_3_1_2
                       + 1.425000000000 f_0_3_2_1 + 0.300000000000 f_0_3_2_2
                       + 0.475000000000 f_1_0_1_1 + 0.100000000000 f_1_0_1_2
                       + 0.475000000000 f_1_0_2_1 + 0.100000000000 f_1_0_2_2
                       + 0.475000000000 f_1_2_1_1 + 0.100000000000 f_1_2_1_2
                       + 0.475000000000 f_1_2_2_1 + 0.100000000000 f_1_2_2_2
                       + 0.950000000000 f_1_3_1_1 + 0.200000000000 f_1_3_1_2
                       + 0.950000000000 f_1_3_2_1 + 0.200000000000 f_1_3_2_2
                       + 0.950000000000 f_2_0_1_1 + 0.200000000000 f_2_0_1_2
                       + 0.950000000000 f_2_0_2_1 + 0.200000000000 f_2_0_2_2
                       + 0.475000000000 f_2_1_1_1 + 0.100000000000 f_2_1_1_2
                       + 0.475000000000 f_2_1_2_1 + 0.100000000000 f_2_1_2_2
                       + 0.475000000000 f_2_3_1_1 + 0.100000000000 f_2_3_1_2
                       + 0.475000000000 f_2_3_2_1 + 0.100000000000 f_2_3_2_2
                       + 1.425000000000 f_3_0_1_1 + 0.300000000000 f_3_0_1_2
                       + 1.425000000000 f_3_0_2_1 + 0.300000000000 f_3_0_2_2
                       + 0.950000000000 f_3_1_1_1 + 0.200000000000 f_3_1_1_2
                       + 0.950000000000 f_3_1_2_1 + 0.200000000000 f_3_1_2_2
                       + 0.475000000000 f_3_2_1_1 + 0.100000000000 f_3_2_1_2
                       + 0.475000000000 f_3_2_2_1 + 0.100000000000 f_3_2_2_2
                       + 0.305000000000 I_O_1 + 0.305000000000 I_O_2 + 2 w1_1_1
                       + 2 w1_1_2 + 2 w1_2_1 + 2 w1_2_2 + 2 w1_3_1 + 2 w1_3_2
                       + 5 w2_1_1 + 5 w2_1_2 + 5 w2_2_1 + 5 w2_2_2 + 5 w2_3_1
                       + 5 w2_3_2 <= 200
 c15_carbon_budget: 1.640478765432 x_0_1_1_1 + 1.177420555556 x_0_1_1_2
                    + 1.640478765432 x_0_1_2_1 + 1.177420555556 x_0_1_2_2
                    + 3.280957530864 x_0_2_1_1 + 2.354841111111 x_0_2_1_2
                    + 3.280957530864 x_0_2_2_1 + 2.354841111111 x_0_2_2_2
                    + 4.921436296296 x_0_3_1_1 + 3.532261666667 x_0_3_1_2
                    + 4.921436296296 x_0_3_2_1 + 3.532261666667 x_0_3_2_2
                    + 1.640478765432 x_1_0_1_1 + 1.177420555556 x_1_0_1_2
                    + 1.640478765432 x_1_0_2_1 + 1.177420555556 x_1_0_2_2
                    + 1.640478765432 x_1_2_1_1 + 1.177420555556 x_1_2_1_2
                    + 1.640478765432 x_1_2_2_1 + 1.177420555556 x_1_2_2_2
                    + 3.280957530864 x_1_3_1_1 + 2.354841111111 x_1_3_1_2
                    + 3.280957530864 x_1_3_2_1 + 2.354841111111 x_1_3_2_2
                    + 3.280957530864 x_2_0_1_1 + 2.354841111111 x_2_0_1_2
                    + 3.280957530864 x_2_0_2_1 + 2.354841111111 x_2_0_2_2
                    + 1.640478765432 x_2_1_1_1 + 1.177420555556 x_2_1_1_2
                    + 1.640478765432 x_2_1_2_1 + 1.177420555556 x_2_1_2_2
                    + 1.640478765432 x_2_3_1_1 + 1.177420555556 x_2_3_1_2
                    + 1.640478765432 x_2_3_2_1 + 1.177420555556 x_2_3_2_2
                    + 4.921436296296 x_3_0_1_1 + 3.532261666667 x_3_0_1_2
                    + 4.921436296296 x_3_0_2_1 + 3.532261666667 x_3_0_2_2
                    + 3.280957530864 x_3_1_1_1 + 2.354841111111 x_3_1_1_2
                    + 3.280957530864 x_3_1_2_1 + 2.354841111111 x_3_1_2_2
                    + 1.640478765432 x_3_2_1_1 + 1.177420555556 x_3_2_1_2
                    + 1.640478765432 x_3_2_2_1 + 1.177420555556 x_3_2_2_2
                    + 0.000727575000 f_0_1_1_1 + 0.000727575000 f_0_1_1_2
                    + 0.000727575000 f_0_1_2_1 + 0.000727575000 f_0_1_2_2
                    + 0.001455150000 f_0_2_1_1 + 0.001455150000 f_0_2_1_2
                    + 0.001455150000 f_0_2_2_1 + 0.001455150000 f_0_2_2_2
                    + 0.002182725000 f_0_3_1_1 + 0.002182725000 f_0_3_1_2
                    + 0.002182725000 f_0_3_2_1 + 0.002182725000 f_0_3_2_2
                    + 0.000727575000 f_1_0_1_1 + 0.000727575000 f_1_0_1_2
                    + 0.000727575000 f_1_0_2_1 + 0.000727575000 f_1_0_2_2
                    + 0.000727575000 f_1_2_1_1 + 0.000727575000 f_1_2_1_2
                    + 0.000727575000 f_1_2_2_1 + 0.000727575000 f_1_2_2_2
                    + 0.001455150000 f_1_3_1_1 + 0.001455150000 f_1_3_1_2
                    + 0.001455150000 f_1_3_2_1 + 0.001455150000 f_1_3_2_2
                    + 0.001455150000 f_2_0_1_1 + 0.001455150000 f_2_0_1_2
                    + 0.001455150000 f_2_0_2_1 + 0.001455150000 f_2_0_2_2
                    + 0.000727575000 f_2_1_1_1 + 0.000727575000 f_2_1_1_2
                    + 0.000727575000 f_2_1_2_1 + 0.000727575000 f_2_1_2_2
                    + 0.000727575000 f_2_3_1_1 + 0.000727575000 f_2_3_1_2
                    + 0.000727575000 f_2_3_2_1 + 0.000727575000 f_2_3_2_2
                    + 0.002182725000 f_3_0_1_1 + 0.002182725000 f_3_0_1_2
                    + 0.002182725000 f_3_0_2_1 + 0.002182725000 f_3_0_2_2
                    + 0.001455150000 f_3_1_1_1 + 0.001455150000 f_3_1_1_2
                    + 0.001455150000 f_3_1_2_1 + 0.001455150000 f_3_1_2_2
                    + 0.000727575000 f_3_2_1_1 + 0.000727575000 f_3_2_1_2
                    + 0.000727575000 f_3_2_2_1 + 0.000727575000 f_3_2_2_2 <= 30
 c16_bfr_budget: 0.041095890411 qprime_1_1_1 + 0.041095890411 qprime_1_1_2
                 + 0.041095890411 qprime_1_2_2 + 0.410958904110 qprime_2_1_1
                 + 0.410958904110 qprime_2_1_2 + 0.410958904110 qprime_2_2_2
                 + 0.024657534247 qprime_3_1_1 + 0.024657534247 qprime_3_1_2
                 + 0.024657534247 qprime_3_2_2 + 0.410958904110 I_O_1
                 + 0.410958904110 I_O_2 <= 80
 c17_time_budget: 0.125000000000 x_0_1_1_1 + 0.166666666667 x_0_1_1_2
                  + 0.125000000000 x_0_1_2_1 + 0.166666666667 x_0_1_2_2
                  + 0.250000000000 x_0_2_1_1 + 0.333333333333 x_0_2_1_2
                  + 0.250000000000 x_0_2_2_1 + 0.333333333333 x_0_2_2_2
                  + 0.375000000000 x_0_3_1_1 + 0.500000000000 x_0_3_1_2
                  + 0.375000000000 x_0_3_2_1 + 0.500000000000 x_0_3_2_2
                  + 0.125000000000 x_1_0_1_1 + 0.166666666667 x_1_0_1_2
                  + 0.125000000000 x_1_0_2_1 + 0.166666666667 x_1_0_2_2
                  + 0.125000000000 x_1_2_1_1 + 0.166666666667 x_1_2_1_2
                  + 0.125000000000 x_1_2_2_1 + 0.166666666667 x_1_2_2_2
                  + 0.250000000000 x_1_3_1_1 + 0.333333333333 x_1_3_1_2
                  + 0.250000000000 x_1_3_2_1 + 0.333333333333 x_1_3_2_2
                  + 0.250000000000 x_2_0_1_1 + 0.333333333333 x_2_0_1_2
                  + 0.250000000000 x_2_0_2_1 + 0.333333333333 x_2_0_2_2
                  + 0.125000000000 x_2_1_1_1 + 0.166666666667 x_2_1_1_2
                  + 0.125000000000 x_2_1_2_1 + 0.166666666667 x_2_1_2_2
                  + 0.125000000000 x_2_3_1_1 + 0.166666666667 x_2_3_1_2
                  + 0.125000000000 x_2_3_2_1 + 0.166666666667 x_2_3_2_2
                  + 0.375000000000 x_3_0_1_1 + 0.500000000000 x_3_0_1_2
                  + 0.375000000000 x_3_0_2_1 + 0.500000000000 x_3_0_2_2
                  + 0.250000000000 x_3_1_1_1 + 0.333333333333 x_3_1_1_2
                  + 0.250000000000 x_3_1_2_1 + 0.333333333333 x_3_1_2_2
                  + 0.125000000000 x_3_2_1_1 + 0.166666666667 x_3_2_1_2
                  + 0.125000000000 x_3_2_2_1 + 0.166666666667 x_3_2_2_2 <= 30

Bounds
 0 <= x_0_1_1_1 <= 1
 0 <= x_0_1_1_2 <= 1
 0 <= x_0_1_2_1 <= 1
 0 <= x_0_1_2_2 <= 1
 0 <= x_0_2_1_1 <= 1
 0 <= x_0_2_1_2 <= 1
 0 <= x_0_2_2_1 <= 1
 0 <= x_0_2_2_2 <= 1
 0 <= x_0_3_1_1 <= 1
 0 <= x_0_3_1_2 <= 1
 0 <= x_0_3_2_1 <= 1
 0 <= x_0_3_2_2 <= 1
 0 <= x_1_0_1_1 <= 1
 0 <= x_1_0_1_2 <= 1
 0 <= x_1_0_2_1 <= 1
 0 <= x_1_0_2_2 <= 1
 0 <= x_1_2_1_1 <= 1
 0 <= x_1_2_1_2 <= 1
 0 <= x_1_2_2_1 <= 1
 0 <= x_1_2_2_2 <= 1
 0 <= x_1_3_1_1 <= 1
 0 <= x_1_3_1_2 <= 1
 0 <= x_1_3_2_1 <= 1
 0 <= x_1_3_2_2 <= 1
 0 <= x_2_0_1_1 <= 1
 0 <= x_2_0_1_2 <= 1
 0 <= x_2_0_2_1 <= 1
 0 <= x_2_0_2_2 <= 1
 0 <= x_2_1_1_1 <= 1
 0 <= x_2_1_1_2 <= 1
 0 <= x_2_1_2_1 <= 1
 0 <= x_2_1_2_2 <= 1
 0 <= x_2_3_1_1 <= 1
 0 <= x_2_3_1_2 <= 1
 0 <= x_2_3_2_1 <= 1
 0 <= x_2_3_2_2 <= 1
 0 <= x_3_0_1_1 <= 1
 0 <= x_3_0_1_2 <= 1
 0 <= x_3_0_2_1 <= 1
 0 <= x_3_0_2_2 <= 1
 0 <= x_3_1_1_1 <= 1
 0 <= x_3_1_1_2 <= 1
 0 <= x_3_1_2_1 <= 1
 0 <= x_3_1_2_2 <= 1
 0 <= x_3_2_1_1 <= 1
 0 <= x_3_2_1_2 <= 1
 0 <= x_3_2_2_1 <= 1
 0 <= x_3_2_2_2 <= 1

Binaries
 x_0_1_1_1 x_0_1_1_2 x_0_1_2_1 x_0_1_2_2 x_0_2_1_1 x_0_2_1_2 x_0_2_2_1 x_0_2_2_2
 x_0_3_1_1 x_0_3_1_2 x_0_3_2_1 x_0_3_2_2 x_1_0_1_1 x_1_0_1_2 x_1_0_2_1 x_1_0_2_2
 x_1_2_1_1 x_1_2_1_2 x_1_2_2_1 x_1_2_2_2 x_1_3_1_1 x_1_3_1_2 x_1_3_2_1 x_1_3_2_2
 x_2_0_1_1 x_2_0_1_2 x_2_0_2_1 x_2_0_2_2 x_2_1_1_1 x_2_1_1_2 x_2_1_2_1 x_2_1_2_2
 x_2_3_1_1 x_2_3_1_2 x_2_3_2_1 x_2_3_2_2 x_3_0_1_1 x_3_0_1_2 x_3_0_2_1 x_3_0_2_2
 x_3_1_1_1 x_3_1_1_2 x_3_1_2_1 x_3_1_2_2 x_3_2_1_1 x_3_2_1_2 x_3_2_2_1 x_3_2_2_2
End
